(declare-const GEN1 Real)
(declare-const GEN2 Int)
(declare-const GEN3 Real)
(declare-const GEN4 Int)
(declare-const GEN5 Real)
(declare-const GEN6 Real)
(declare-const GEN7 Real)
(declare-fun a () Real)
(declare-fun b () Real)
(declare-fun c () Real)
(declare-fun d () Real)
(declare-fun h () Real)
(declare-fun e () Real)
(declare-fun f () Real)
(declare-fun o () Real)
(declare-fun g () Real)
(declare-fun p () Real)
(declare-fun i () Real)
(declare-fun j () Real)
(declare-fun k () Real)
(declare-fun l () Real)
(declare-fun m () Real)
(declare-fun n () Real)
(declare-fun ac () Real)
(declare-fun ad () Real)
(declare-fun ae () Real)
(declare-fun af () Real)
(declare-const BAV1 Bool)
(declare-const BAV2 Real)
(declare-const BAV3 Real)
(declare-const BAV4 Real)
(declare-const BAV5 Bool)
(declare-const BAV6 Bool)
(declare-const BAV7 Real)
(declare-const BAV8 Bool)
(declare-const BAV9 Bool)
(declare-const BAV10 Bool)
(declare-const BAV11 Real)
(declare-const BAV12 Bool)
(declare-const BAV13 Real)
(declare-const BAV14 Bool)
(declare-const BAV15 Bool)
(declare-const BAV16 Bool)
(declare-const BAV17 Bool)
(declare-const BAV18 Real)
(declare-const BAV19 Real)
(declare-const BAV20 Real)
(declare-const BAV21 Real)
(declare-const BAV22 Real)
(declare-const BAV23 Bool)
(declare-const BAV24 Bool)
(declare-const BAV25 Bool)
(declare-const BAV26 Bool)
(declare-const BAV27 Bool)
(declare-const BAV28 Real)
(declare-const BAV29 Bool)
(declare-const BAV30 Real)
(declare-const BAV31 Bool)
(declare-const QUAL_REPLACE1 Real)
(declare-const BDOM1 Bool)
(declare-const BDOM2 Bool)
(declare-const BDOM3 Bool)
(declare-const BDOM4 Bool)
(declare-const BDOM5 Bool)
(declare-const BDOM6 Bool)
(declare-const BDOM7 Bool)
(declare-const BDOM8 Bool)
(declare-const BDOM9 Bool)
(declare-const BDOM10 Bool)
(declare-const BDOM11 Bool)
(declare-const BDOM12 Bool)
(declare-const BDOM13 Bool)
(declare-const BDOM14 Bool)
(declare-const BDOM15 Bool)
(declare-const BDOM16 Bool)
(declare-const BDOM17 Bool)
(declare-const BDOM18 Bool)
(declare-const BDOM19 Bool)
(declare-const BDOM20 Bool)
(declare-const BDOM21 Bool)
(declare-const BDOM22 Bool)
(declare-const BDOM23 Bool)
(declare-const BDOM24 Bool)
(declare-const BDOM25 Bool)
(declare-const BDOM26 Bool)
(declare-const BDOM27 Bool)
(declare-const BDOM28 Bool)
(declare-const BDOM29 Bool)
(declare-const BDOM30 Bool)
(declare-const BDOM31 Bool)
(declare-const BDOM32 Bool)
(declare-const BDOM33 Bool)
(declare-const BDOM34 Bool)
(declare-const BDOM35 Bool)
(declare-const BDOM36 Bool)
(declare-const BDOM37 Bool)
(declare-const BDOM38 Bool)
(declare-const BDOM39 Bool)
(declare-const BDOM40 Bool)
(declare-const BDOM41 Bool)
(declare-const BDOM42 Bool)
(declare-const BDOM43 Bool)
(declare-const BDOM44 Bool)
(declare-const BDOM45 Bool)
(declare-const BDOM46 Bool)
(declare-const BDOM47 Bool)
(declare-const BDOM48 Bool)
(declare-const BDOM49 Bool)
(declare-const BDOM50 Bool)
(declare-const BDOM51 Bool)
(declare-const BDOM52 Bool)
(declare-const BDOM53 Bool)
(declare-const BDOM54 Bool)
(declare-const BDOM55 Bool)
(declare-const BDOM56 Bool)
(declare-const BDOM57 Bool)
(assert (forall ((ah Real)) (= BAV1 (= g GEN1))))
(assert (forall ((ah Real)) (= BAV2 (* e e))))
(assert (forall ((ah Real)) (= BAV3 (/ (* e e) GEN2))))
(assert (forall ((ah Real)) (= BAV4 (- (/ (* e e) GEN2)))))
(assert (forall ((ah Real)) (= BAV5 (< (- (/ (* e e) GEN2)) i))))
(assert (forall ((ah Real)) (= BAV6 (and (= g GEN1) (< (- (/ (* e e) GEN2)) i)))))
(assert (forall ((ah Real)) (= BAV7 (/ h k))))
(assert (forall ((ah Real)) (= BAV8 (<= e (/ h k)))))
(assert (forall ((ah Real)) (= BAV9 (or (and (= g GEN1) (< (- (/ (* e e) GEN2)) i)) (<= e (/ h k))))))
(assert (forall ((ah Real)) (= BAV10 (<= ah l))))
(assert (forall ((ah Real)) (= BAV11 (* f ah))))
(assert (forall ((ah Real)) (= BAV12 (= n (* f ah) o))))
(assert (forall ((ah Real)) (= BAV13 (- ah o))))
(assert (forall ((ah Real)) (= BAV14 (>= (- ah o) k))))
(assert (forall ((ah Real)) (= BAV15 (and (= n (* f ah) o) (>= (- ah o) k)))))
(assert (forall ((ah Real)) (= BAV16 (=> (<= ah l) (and (= n (* f ah) o) (>= (- ah o) k))))))
(assert (forall ((ah Real)) (= BAV17 (distinct (or (and (= g GEN1) (< (- (/ (* e e) GEN2)) i)) (<= e (/ h k))) (not (=> (<= ah l) (and (= n (* f ah) o) (>= (- ah o) k))))))))
(assert (= BAV18 (+ GEN3 ac)))
(assert (= BAV19 (- a e)))
(assert (= BAV20 (/ (+ GEN3 ac) (- a e))))
(assert (= BAV21 (- d p)))
(assert (= BAV22 (+ (/ (+ GEN3 ac) (- a e)) (- d p))))
(assert (= BAV23 (<= (+ (/ (+ GEN3 ac) (- a e)) (- d p)) GEN4 ae GEN5)))
(assert (= BAV24 (<= GEN6 k)))
(assert (= BAV25 (or (<= (+ (/ (+ GEN3 ac) (- a e)) (- d p)) GEN4 ae GEN5) (<= GEN6 k))))
(assert (= BAV26 (= b GEN7)))
(assert (= BAV27 (=> (or (<= (+ (/ (+ GEN3 ac) (- a e)) (- d p)) GEN4 ae GEN5) (<= GEN6 k)) (= b GEN7))))
(assert (= BAV28 (* m f af)))
(assert (= BAV29 (= a (* m f af))))
(assert (= BAV30 (/ j ad)))
(assert (= BAV31 (distinct c (/ j ad))))
(assert (= BDOM1 BAV1))
(assert (= (= BAV2 0) BDOM2))
(assert (= (< BAV2 0) BDOM3))
(assert (= (> BAV2 0) BDOM4))
(assert (= (= BAV3 0) BDOM5))
(assert (= (< BAV3 0) BDOM6))
(assert (= (> BAV3 0) BDOM7))
(assert (= (= BAV4 0) BDOM8))
(assert (= (< BAV4 0) BDOM9))
(assert (= (> BAV4 0) BDOM10))
(assert (= BDOM11 BAV5))
(assert (= BDOM12 BAV6))
(assert (= (= BAV7 0) BDOM13))
(assert (= (< BAV7 0) BDOM14))
(assert (= (> BAV7 0) BDOM15))
(assert (= BDOM16 BAV8))
(assert (= BDOM17 BAV9))
(assert (= BDOM18 BAV10))
(assert (= (= BAV11 0) BDOM19))
(assert (= (< BAV11 0) BDOM20))
(assert (= (> BAV11 0) BDOM21))
(assert (= BDOM22 BAV12))
(assert (= (= BAV13 0) BDOM23))
(assert (= (< BAV13 0) BDOM24))
(assert (= (> BAV13 0) BDOM25))
(assert (= BDOM26 BAV14))
(assert (= BDOM27 BAV15))
(assert (= BDOM28 BAV16))
(assert (= BDOM29 BAV17))
(assert (= (= BAV18 0) BDOM30))
(assert (= (< BAV18 0) BDOM31))
(assert (= (> BAV18 0) BDOM32))
(assert (= (= BAV19 0) BDOM33))
(assert (= (< BAV19 0) BDOM34))
(assert (= (> BAV19 0) BDOM35))
(assert (= (= BAV20 0) BDOM36))
(assert (= (< BAV20 0) BDOM37))
(assert (= (> BAV20 0) BDOM38))
(assert (= (= BAV21 0) BDOM39))
(assert (= (< BAV21 0) BDOM40))
(assert (= (> BAV21 0) BDOM41))
(assert (= (= BAV22 0) BDOM42))
(assert (= (< BAV22 0) BDOM43))
(assert (= (> BAV22 0) BDOM44))
(assert (= BDOM45 BAV23))
(assert (= BDOM46 BAV24))
(assert (= BDOM47 BAV25))
(assert (= BDOM48 BAV26))
(assert (= BDOM49 BAV27))
(assert (= (= BAV28 0) BDOM50))
(assert (= (< BAV28 0) BDOM51))
(assert (= (> BAV28 0) BDOM52))
(assert (= BDOM53 BAV29))
(assert (= (= BAV30 0) BDOM54))
(assert (= (< BAV30 0) BDOM55))
(assert (= (> BAV30 0) BDOM56))
(assert (= BDOM57 BAV31))
(check-sat)
(get-model)
